letting n =  10
letting blocks =  [[1, 5], [1, 10], [2, 1], [2, 7], [3, 4], [3, 6], [5, 3], [5, 5], [5, 7], [5, 9], [6, 1], [6, 3], [6, 4], [6, 7], [6, 9], [7, 1], [7, 3], [7, 4], [8, 1], [9, 2], [9, 5], [10, 8]]
